letting n =  10
letting blocks =  [[1, 4], [2, 2], [2, 3], [2, 8], [3, 5], [3, 7], [4, 3], [4, 4], [4, 9], [4, 10], [5, 1], [5, 5], [6, 4], [6, 10], [7, 7], [7, 9], [7, 10], [8, 10], [9, 4], [9, 10], [10, 6], [10, 8]]
